9 2 
69 99 
60 57 
77 20 
67 93 
90 73 
6 77 
15 96 
57 18 
26 81 
91 34 
53 87 
69 96 
19 49 
85 64 
31 46 
66 0 
98 79 
57 27 
99 25 
20 41 
50 78 
18 17 
26 27 
35 52 
61 78 
86 14 
65 55 
10 37 
56 47 
1 87 
46 20 
87 44 
99 97 
23 50 
74 43 
91 24 
73 61 
41 0 
88 28 
52 1 
6 91 
16 24 
98 78 
61 55 
78 14 
94 24 
34 82 
20 85 
31 43 
